
(set-logic ALL) 

(declare-datatype MyList ((Nil) (Cons (head Real) (tail MyList)) )) 
(declare-fun l0 () MyList) 
(declare-fun l1 () MyList) 
(declare-fun l2 () MyList) 
(declare-fun l3 () MyList) 
(declare-fun i0 () Real) 
(declare-fun i1 () Real) 
(assert (not (= l2 l0)) )
(assert (or (= l1 Nil) (= l0 Nil) (is-Cons Nil) (= l3 Nil)) )
(assert (= l0 Nil) )
(assert (or (is-Nil Nil) (= l0 Nil) (= l2 Nil)) )
(assert (and (= l1 l0) (= l1 Nil)) )
(assert (or (is-Nil l0) (is-Nil Nil)) )
(assert (is-Nil l3) )
(assert (and (= l2 l1) (= l2 Nil) (is-Nil Nil)) )
(check-sat)
